562 5
10 10 10 10 10 

0 0 0 0 0 0 3 2 54 66 
0 0 0 0 0 0 1 3 
6 1 2 4 2 3 2 8 4 
3 5 4 3 3 4 1 5 
2 7 4 4 8 2 1 6 
2 1 4 4 7 5 1 7 
10 2 3 4 8 5 2 12 9 
3 7 5 5 10 9 1 9 
3 3 3 6 6 3 1 10 
7 7 4 3 8 7 1 11 
3 4 9 8 5 6 1 13 
9 2 4 9 5 7 1 13 
10 5 6 6 5 3 1 14 
8 7 7 10 7 6 3 17 15 58 
9 4 3 9 4 6 1 16 
9 4 7 7 3 6 2 22 18 
3 7 2 5 3 4 1 18 
5 3 8 4 5 4 1 19 
10 5 6 1 10 5 1 20 
6 3 4 5 6 5 3 27 26 21 
6 7 9 9 6 3 2 32 23 
3 7 7 7 7 6 2 32 25 
5 8 2 2 5 10 1 24 
6 3 4 5 6 4 1 25 
4 5 10 5 3 4 2 30 28 
6 4 4 6 7 4 2 32 29 
7 5 6 4 5 2 1 28 
6 5 6 3 4 1 1 29 
1 3 2 5 5 2 1 31 
2 6 2 4 7 3 2 36 34 
7 9 6 10 4 7 1 33 
1 8 3 2 6 6 1 33 
3 7 2 3 3 6 1 34 
2 3 4 8 4 2 2 37 35 
4 3 6 4 3 6 2 42 38 
9 8 7 7 5 10 2 42 39 
8 4 3 4 2 4 2 42 40 
8 6 4 3 5 4 1 39 
10 7 5 6 3 5 1 40 
2 4 6 4 4 7 1 41 
7 3 10 8 2 5 2 49 43 
6 8 6 4 6 5 2 49 44 
3 3 5 5 4 7 1 44 
10 5 4 6 4 4 1 45 
8 3 2 3 4 7 1 46 
4 8 5 4 4 6 1 47 
3 7 6 3 7 4 1 48 
5 3 6 4 2 9 2 52 50 
2 4 5 4 7 4 2 52 50 
1 7 7 4 5 1 1 51 
3 6 4 3 2 6 1 53 
9 4 7 4 4 6 1 53 
0 0 0 0 0 0 1 562 
0 0 0 0 0 0 1 55 
5 1 0 0 0 0 1 56 
7 5 0 0 0 0 1 57 
9 4 0 0 0 0 2 59 58 
7 7 0 0 0 0 2 61 60 
5 5 0 0 0 0 2 62 60 
10 5 0 0 0 0 2 63 414 
5 5 0 0 0 0 1 62 
10 4 0 0 0 0 1 64 
2 7 0 0 0 0 1 64 
7 7 0 0 0 0 1 65 
0 0 0 0 0 0 5 118 160 202 214 256 
0 0 0 0 0 0 1 67 
5 4 1 1 1 1 2 76 68 
10 5 5 6 9 7 1 69 
10 2 3 5 2 3 1 70 
1 3 5 6 7 7 1 71 
4 4 2 6 4 3 2 75 72 
6 5 5 5 2 5 2 73 134 
10 7 5 2 2 7 1 74 
9 5 7 2 3 2 1 77 
3 8 7 4 4 4 1 77 
8 2 6 6 7 2 1 77 
9 5 5 5 3 6 1 78 
1 5 5 4 6 2 2 81 79 
1 5 7 3 4 3 1 80 
2 7 5 6 6 5 2 89 82 
3 4 8 1 5 4 1 82 
8 3 7 4 3 4 1 83 
8 10 5 10 4 3 1 84 
1 2 2 4 4 6 3 92 91 85 
4 3 3 3 9 4 2 97 86 
6 3 3 9 5 5 1 87 
2 4 6 9 1 5 1 88 
3 5 4 5 9 7 2 96 90 
2 5 6 3 4 8 2 102 93 
4 4 4 5 6 8 1 93 
7 4 3 4 6 6 1 93 
6 4 6 2 7 3 2 97 95 
3 2 4 4 6 7 1 94 
8 6 4 5 7 6 1 95 
6 4 6 6 6 4 2 100 98 
7 4 4 8 5 4 3 110 102 99 
1 6 5 5 4 4 1 98 
9 6 5 5 3 5 2 110 99 
8 7 6 6 7 7 1 101 
1 6 6 2 3 7 2 110 104 
10 4 4 6 9 5 1 103 
8 7 4 10 6 5 1 103 
5 4 5 3 4 9 1 104 
10 4 5 7 5 5 1 105 
2 5 5 2 5 8 2 116 106 
3 7 6 8 4 1 1 107 
10 5 2 8 6 5 1 108 
7 3 7 4 5 3 1 109 
10 9 2 10 7 6 1 111 
5 3 7 2 6 5 1 111 
9 10 4 8 6 7 1 112 
3 5 5 5 4 3 2 115 113 
1 3 9 4 4 7 1 114 
9 5 3 3 7 7 1 117 
4 7 8 3 3 3 1 117 
7 10 9 6 5 7 1 117 
0 0 0 0 0 0 1 562 
0 0 0 0 0 0 3 119 125 127 
6 1 1 1 1 0 1 120 
3 3 4 10 3 0 1 121 
10 9 5 6 6 0 1 122 
8 5 7 4 1 0 1 123 
6 4 5 2 3 0 1 124 
10 6 8 5 6 0 2 132 126 
3 3 5 6 5 0 2 132 128 
2 6 2 6 3 0 1 128 
2 5 7 3 2 0 3 132 130 455 
5 3 6 6 10 0 1 129 
1 3 3 5 10 0 1 130 
10 4 7 7 3 0 1 131 
4 7 7 5 2 0 1 133 
1 5 5 3 6 0 1 133 
3 7 1 5 5 0 1 134 
9 4 5 2 4 0 2 141 135 
9 5 5 4 6 0 2 146 136 
10 6 6 5 10 0 2 157 137 
8 4 5 4 7 0 1 138 
2 7 4 6 6 0 1 139 
1 8 6 2 5 0 1 140 
6 3 2 8 5 0 2 155 142 
1 4 4 6 8 0 4 158 155 154 144 
9 4 5 2 3 0 2 156 143 
8 6 6 3 7 0 2 154 144 
8 5 3 5 5 0 1 145 
1 4 4 3 3 0 1 147 
7 7 5 5 4 0 1 147 
7 3 5 4 3 0 1 148 
6 5 4 5 9 0 1 149 
10 3 2 5 2 0 1 150 
7 5 3 10 4 0 1 151 
6 6 8 4 6 0 1 152 
5 3 8 7 4 0 1 153 
8 9 6 6 7 0 1 159 
2 8 5 3 2 0 1 159 
6 7 9 5 6 0 1 159 
5 4 7 8 4 0 1 159 
6 7 6 7 4 0 1 159 
4 2 4 7 10 0 1 159 
0 0 0 0 0 0 1 562 
0 0 0 0 0 0 3 161 169 175 
6 0 2 1 1 1 1 162 
10 0 9 4 5 4 1 163 
7 0 7 6 5 4 1 164 
10 0 3 7 3 5 1 165 
1 0 6 5 4 3 2 174 166 
9 0 5 3 5 1 1 167 
7 0 9 7 8 1 1 168 
3 0 9 7 3 6 1 170 
5 0 4 6 6 5 1 170 
2 0 4 9 2 4 1 171 
4 0 6 5 4 3 1 172 
9 0 8 6 4 5 1 173 
6 0 3 7 4 9 2 186 176 
8 0 6 4 8 10 2 186 176 
5 0 4 5 5 7 2 186 176 
6 0 4 2 5 8 2 200 177 
5 0 5 3 1 3 2 190 178 
7 0 4 3 5 8 2 199 179 
1 0 4 4 3 5 1 180 
8 0 4 5 5 2 1 181 
4 0 4 4 4 5 1 182 
6 0 10 6 2 5 2 196 183 
1 0 9 8 8 6 3 198 197 184 
3 0 2 3 6 4 1 185 
9 0 3 6 3 3 1 187 
2 0 2 6 5 3 2 196 189 
2 0 6 4 6 6 1 188 
10 0 4 7 4 5 1 189 
9 0 3 4 9 6 1 191 
3 0 5 2 3 3 1 191 
1 0 6 3 9 9 1 192 
2 0 2 8 7 5 2 193 313 
2 0 4 7 5 4 1 194 
8 0 4 3 5 4 1 195 
3 0 6 4 8 4 1 201 
7 0 3 4 8 8 1 201 
6 0 3 7 5 9 1 201 
4 0 5 3 4 7 1 201 
2 0 3 4 7 4 1 201 
2 0 10 8 6 6 1 201 
0 0 0 0 0 0 1 562 
0 0 0 0 0 0 3 203 208 404 
4 0 0 0 0 1 1 204 
10 0 0 0 0 5 1 205 
7 0 0 0 0 8 2 212 206 
2 0 0 0 0 2 2 211 207 
10 0 0 0 0 8 1 209 
5 0 0 0 0 3 1 209 
10 0 0 0 0 5 1 210 
7 0 0 0 0 5 1 213 
2 0 0 0 0 6 1 213 
6 0 0 0 0 7 1 213 
0 0 0 0 0 0 5 298 330 362 374 406 
0 0 0 0 0 0 3 215 223 231 
4 1 0 1 3 1 1 216 
5 6 0 5 7 4 1 217 
3 6 0 9 6 6 1 218 
1 5 0 4 5 4 1 219 
4 5 0 4 4 7 2 229 220 
9 6 0 5 3 6 1 221 
2 3 0 4 4 8 1 222 
7 4 0 9 3 2 1 224 
1 4 0 7 5 7 1 224 
2 4 0 6 9 5 1 225 
7 2 0 6 6 5 1 226 
1 6 0 6 5 5 1 227 
4 5 0 7 4 9 2 245 228 
2 7 0 5 5 5 2 254 230 
8 5 0 5 6 4 2 254 230 
7 4 0 4 7 4 2 244 232 
7 8 0 4 2 5 3 245 244 233 
8 4 0 5 8 6 2 253 233 
4 6 0 2 4 6 1 234 
9 7 0 5 2 1 1 235 
8 4 0 4 6 2 1 236 
9 3 0 8 7 5 2 250 237 
1 3 0 6 4 6 3 252 251 238 
1 7 0 3 4 9 1 239 
7 6 0 3 6 5 1 240 
7 4 0 5 10 3 1 241 
10 6 0 5 8 5 1 242 
6 3 0 7 6 6 1 243 
3 5 0 4 3 7 1 246 
4 6 0 3 3 10 1 246 
8 7 0 4 6 7 2 250 248 
10 2 0 4 6 3 1 247 
7 7 0 5 4 2 1 248 
4 3 0 5 3 5 1 249 
9 5 0 5 3 2 1 255 
1 6 0 3 6 3 2 255 363 
9 5 0 5 5 7 1 255 
6 4 0 8 5 4 1 255 
9 8 0 5 5 6 1 255 
5 8 0 5 2 3 1 255 
0 0 0 0 0 0 1 562 
0 0 0 0 0 0 2 257 258 
8 1 4 1 0 1 2 261 260 
9 1 3 3 0 6 1 259 
10 5 3 3 0 3 1 260 
5 5 8 7 0 3 1 262 
6 2 9 4 0 1 1 262 
4 4 5 4 0 7 1 263 
7 4 6 1 0 8 1 264 
9 4 5 4 0 4 1 265 
1 4 3 9 0 9 2 268 266 
2 3 3 6 0 5 1 267 
7 4 6 6 0 6 1 269 
5 5 5 4 0 5 1 269 
2 3 3 3 0 5 1 270 
6 5 3 5 0 2 1 271 
1 2 4 4 0 4 1 272 
4 9 6 2 0 3 1 273 
3 4 5 5 0 7 3 276 275 274 
9 6 5 5 0 5 2 280 278 
10 4 5 4 0 8 1 277 
7 4 4 5 0 4 2 280 279 
10 7 4 4 0 1 1 278 
9 7 6 6 0 9 1 279 
4 2 5 7 0 7 2 285 281 
8 7 1 8 0 5 2 285 281 
10 4 6 5 0 4 1 282 
4 5 10 10 0 8 1 283 
10 4 8 5 0 6 2 286 284 
9 7 1 5 0 4 1 287 
3 6 6 4 0 3 1 287 
8 8 2 9 0 3 3 292 290 289 
5 5 4 8 0 9 1 288 
7 5 8 3 0 4 2 292 289 
4 6 8 9 0 6 1 291 
10 5 5 1 0 3 1 291 
1 7 3 5 0 7 1 293 
1 8 8 9 0 5 1 293 
10 6 5 9 0 7 1 294 
9 7 6 2 0 3 1 295 
9 5 4 3 0 6 2 296 350 
6 10 5 3 0 4 1 297 
0 0 0 0 0 0 1 562 
0 0 0 0 0 0 2 299 328 
7 1 0 0 1 1 2 300 463 
6 4 0 0 8 8 1 301 
6 5 0 0 7 7 2 327 302 
2 5 0 0 4 2 1 303 
1 4 0 0 6 7 2 326 304 
3 5 0 0 6 5 4 325 324 323 305 
9 2 0 0 2 6 2 322 306 
1 5 0 0 4 5 1 307 
8 3 0 0 5 1 1 308 
3 7 0 0 7 6 1 309 
3 5 0 0 5 6 1 310 
7 6 0 0 6 6 2 321 311 
10 6 0 0 3 9 1 312 
4 2 0 0 5 3 1 313 
2 8 0 0 5 5 1 314 
7 5 0 0 5 10 1 315 
2 6 0 0 6 3 1 316 
7 5 0 0 6 4 1 317 
8 7 0 0 4 4 1 318 
2 7 0 0 7 4 1 319 
9 3 0 0 5 2 1 320 
10 5 0 0 4 5 1 329 
10 3 0 0 4 3 1 329 
6 7 0 0 4 4 1 329 
3 6 0 0 7 8 1 329 
6 8 0 0 8 6 1 329 
9 8 0 0 4 5 1 329 
1 5 0 0 3 5 1 329 
1 3 0 0 5 3 1 329 
5 4 0 0 4 7 1 329 
0 0 0 0 0 0 1 562 
0 0 0 0 0 0 2 331 348 
4 3 1 0 0 1 1 332 
3 2 5 0 0 6 1 333 
5 4 7 0 0 7 1 334 
3 5 5 0 0 5 1 335 
6 7 2 0 0 6 2 342 336 
5 7 5 0 0 9 1 337 
5 2 4 0 0 9 1 338 
4 10 3 0 0 4 3 347 341 339 
3 7 5 0 0 5 2 344 340 
10 4 5 0 0 5 3 350 346 343 
6 6 2 0 0 4 2 350 345 
6 2 8 0 0 6 1 343 
3 7 4 0 0 3 1 345 
3 6 6 0 0 5 1 345 
7 4 9 0 0 3 1 349 
10 5 2 0 0 4 1 349 
8 5 5 0 0 5 1 350 
5 2 8 0 0 2 1 349 
8 4 3 0 0 3 1 351 
8 2 4 0 0 5 1 351 
6 3 7 0 0 7 1 352 
8 5 5 0 0 8 2 359 353 
6 4 6 0 0 5 1 354 
1 10 5 0 0 4 1 355 
10 6 7 0 0 2 1 356 
6 2 6 0 0 6 1 357 
3 6 4 0 0 6 1 358 
1 8 6 0 0 6 1 360 
8 4 8 0 0 5 1 360 
7 8 3 0 0 4 1 361 
0 0 0 0 0 0 1 562 
0 0 0 0 0 0 1 363 
6 0 0 0 1 0 2 368 364 
2 0 0 0 6 0 1 365 
7 0 0 0 5 0 2 370 366 
8 0 0 0 6 0 2 372 367 
9 0 0 0 3 0 1 369 
8 0 0 0 6 0 1 369 
6 0 0 0 4 0 1 371 
4 0 0 0 5 0 1 371 
8 0 0 0 8 0 1 373 
3 0 0 0 6 0 1 373 
0 0 0 0 0 0 5 438 460 482 504 526 
0 0 0 0 0 0 2 375 404 
2 0 1 1 1 0 1 376 
3 0 6 3 5 0 1 377 
8 0 3 4 1 0 1 378 
6 0 6 5 3 0 1 379 
3 0 6 3 3 0 2 400 380 
1 0 6 7 9 0 1 381 
6 0 4 5 4 0 1 382 
10 0 4 5 4 0 3 393 385 383 
6 0 10 7 4 0 2 387 384 
5 0 5 5 7 0 3 391 389 386 
1 0 6 5 4 0 2 391 390 
10 0 4 6 3 0 1 388 
8 0 7 2 4 0 1 388 
8 0 5 9 5 0 1 390 
5 0 5 5 5 0 1 390 
1 0 3 4 6 0 1 392 
9 0 5 6 8 0 1 392 
3 0 4 6 6 0 1 394 
4 0 7 5 6 0 1 394 
9 0 3 6 6 0 2 403 395 
9 0 3 4 5 0 1 396 
3 0 7 5 2 0 1 397 
6 0 3 4 6 0 1 398 
3 0 6 6 6 0 1 399 
10 0 5 3 7 0 1 401 
6 0 5 8 8 0 1 401 
7 0 7 2 6 0 1 402 
9 0 5 6 4 0 1 405 
1 0 4 7 5 0 1 405 
10 0 5 6 7 0 1 405 
0 0 0 0 0 0 1 562 
0 0 0 0 0 0 2 407 436 
8 3 0 1 0 1 1 408 
3 3 0 2 0 1 1 409 
9 6 0 5 0 4 1 410 
1 3 0 3 0 10 1 411 
3 8 0 10 0 5 2 435 412 
10 7 0 5 0 6 1 413 
3 10 0 5 0 9 2 434 414 
6 2 0 5 0 5 4 433 432 426 415 
10 3 0 4 0 5 2 423 416 
8 4 0 4 0 3 1 417 
6 3 0 6 0 7 1 418 
5 2 0 4 0 2 1 419 
7 2 0 8 0 6 2 431 420 
8 7 0 7 0 7 1 421 
4 7 0 3 0 5 1 422 
7 2 0 6 0 3 1 424 
10 4 0 4 0 5 1 424 
10 5 0 7 0 4 1 425 
6 6 0 4 0 3 1 427 
7 6 0 6 0 5 1 427 
6 3 0 4 0 6 1 428 
1 10 0 6 0 8 1 429 
1 4 0 6 0 6 1 430 
7 5 0 3 0 8 1 437 
4 5 0 3 0 5 1 437 
7 8 0 7 0 8 1 437 
3 6 0 7 0 2 1 437 
10 5 0 4 0 5 1 437 
1 5 0 5 0 2 1 437 
1 6 0 6 0 4 1 437 
0 0 0 0 0 0 1 562 
0 0 0 0 0 0 3 439 457 458 
7 0 0 0 1 1 3 456 455 440 
6 0 0 0 6 5 1 441 
10 0 0 0 6 4 1 442 
6 0 0 0 10 3 1 443 
7 0 0 0 6 7 1 444 
1 0 0 0 5 7 1 445 
3 0 0 0 7 2 2 454 446 
7 0 0 0 5 4 1 447 
7 0 0 0 4 5 1 448 
5 0 0 0 6 3 1 449 
5 0 0 0 5 6 1 450 
10 0 0 0 2 9 1 451 
3 0 0 0 3 4 1 452 
8 0 0 0 4 6 1 453 
3 0 0 0 2 9 1 459 
10 0 0 0 6 2 1 459 
1 0 0 0 6 5 1 459 
5 0 0 0 5 9 1 459 
2 0 0 0 7 6 1 459 
5 0 0 0 4 3 1 459 
0 0 0 0 0 0 1 562 
0 0 0 0 0 0 5 461 477 478 479 480 
7 2 0 0 0 1 1 462 
2 3 0 0 0 3 1 463 
5 6 0 0 0 3 1 464 
7 5 0 0 0 3 1 465 
3 5 0 0 0 2 1 466 
6 5 0 0 0 6 1 467 
5 4 0 0 0 8 2 476 468 
10 7 0 0 0 3 1 469 
9 7 0 0 0 5 1 470 
3 2 0 0 0 7 1 471 
8 10 0 0 0 9 1 472 
10 3 0 0 0 2 1 473 
10 5 0 0 0 6 1 474 
7 7 0 0 0 6 1 475 
2 6 0 0 0 4 1 481 
5 5 0 0 0 10 1 481 
9 6 0 0 0 5 1 481 
9 5 0 0 0 6 1 481 
7 4 0 0 0 5 1 481 
1 3 0 0 0 6 1 481 
0 0 0 0 0 0 1 562 
0 0 0 0 0 0 3 483 494 502 
8 1 0 0 1 0 1 484 
8 7 0 0 3 0 1 485 
4 5 0 0 8 0 2 500 486 
2 5 0 0 8 0 1 487 
1 8 0 0 3 0 1 488 
5 6 0 0 4 0 1 489 
1 6 0 0 7 0 2 499 490 
6 4 0 0 4 0 1 491 
5 3 0 0 4 0 1 492 
3 7 0 0 5 0 1 493 
5 4 0 0 4 0 1 495 
1 4 0 0 7 0 2 501 497 
6 6 0 0 6 0 1 496 
3 4 0 0 5 0 1 497 
3 6 0 0 3 0 1 498 
4 7 0 0 4 0 1 503 
7 1 0 0 4 0 1 503 
4 6 0 0 7 0 1 503 
1 4 0 0 7 0 1 503 
5 6 0 0 6 0 1 503 
0 0 0 0 0 0 1 562 
0 0 0 0 0 0 2 505 507 
1 0 0 1 1 0 2 510 506 
8 0 0 5 4 0 1 508 
6 0 0 6 2 0 1 508 
4 0 0 4 5 0 1 509 
2 0 0 5 8 0 1 511 
3 0 0 6 7 0 1 511 
10 0 0 6 4 0 1 512 
8 0 0 1 8 0 3 521 516 513 
8 0 0 3 4 0 1 514 
7 0 0 7 4 0 1 515 
10 0 0 3 6 0 2 524 517 
5 0 0 4 5 0 2 524 517 
4 0 0 7 5 0 1 518 
3 0 0 6 7 0 1 519 
10 0 0 5 8 0 1 520 
6 0 0 5 4 0 1 522 
7 0 0 6 5 0 1 522 
1 0 0 7 3 0 1 523 
5 0 0 4 4 0 1 525 
10 0 0 9 6 0 1 525 
0 0 0 0 0 0 1 562 
0 0 0 0 0 0 1 527 
3 0 1 0 0 0 1 528 
9 0 5 0 0 0 2 532 529 
2 0 6 0 0 0 2 534 530 
10 0 4 0 0 0 1 531 
6 0 4 0 0 0 2 535 533 
1 0 6 0 0 0 2 536 535 
9 0 3 0 0 0 1 536 
7 0 10 0 0 0 1 535 
2 0 6 0 0 0 1 537 
7 0 5 0 0 0 1 537 
0 0 0 0 0 0 2 538 550 
0 0 0 0 0 0 3 539 543 545 
1 1 0 0 0 0 2 548 540 
10 5 0 0 0 0 1 541 
7 6 0 0 0 0 1 542 
8 5 0 0 0 0 1 544 
1 8 0 0 0 0 2 548 547 
7 5 0 0 0 0 1 546 
10 7 0 0 0 0 1 546 
7 4 0 0 0 0 1 547 
6 6 0 0 0 0 1 549 
10 3 0 0 0 0 1 549 
0 0 0 0 0 0 1 562 
0 0 0 0 0 0 2 551 553 
1 1 0 0 0 0 2 555 552 
8 4 0 0 0 0 2 559 554 
9 6 0 0 0 0 2 559 556 
1 5 0 0 0 0 1 556 
10 3 0 0 0 0 1 556 
6 6 0 0 0 0 1 557 
1 8 0 0 0 0 1 558 
8 4 0 0 0 0 1 560 
7 5 0 0 0 0 1 560 
3 8 0 0 0 0 1 561 
0 0 0 0 0 0 1 562 
0 0 0 0 0 0 0 
